20  5
  0  95  1  41  2  28  3  84  4  19
  0  67  1  36  2  83  3  53  4  24
  0  86  1  18  2  77  3  42  4  67
  0  40  1  35  2  32  3  43  4  61
  0  63  1  31  2  55  3  64  4  78
  0  66  1  48  2  73  3  11  4  44
  0  96  1  71  2  86  3  79  4  55
  0  16  1  89  2  19  3  76  4  94
  0  58  1  38  2  58  3  34  4  85
  0  88  1  19  2  38  3  54  4  50
  0  10  1  33  2  1  3  8  4  17
  0  35  1  94  2  43  3  12  4  71
  0  92  1  38  2  45  3  18  4  81
  0  1  1  3  2  47  3  40  4  85
  0  59  1  82  2  63  3  53  4  11
  0  4  1  47  2  93  3  62  4  71
  0  19  1  24  2  98  3  34  4  64
  0  99  1  71  2  58  3  81  4  39
  0  85  1  91  2  61  3  35  4  50
  0  35  1  90  2  85  3  49  4  8
